m_cache/wcrtsyn.ilp
maximize
74086 Node0 + 3700388 Node1
subject to
Ya_0 = 1
Y1_z = 1
Y0_1 <= 1
Node0 - Y0_1 = 0
Node1 - Y1_z = 0
Node0 - Ya_0 = 0
Node1 - Y0_1 = 0
end
