m_cache/wcrtsyn.sol
set_XLI: Successfully loaded './xli_CPLEX'

Value of objective function: 3.77447e+06

Actual values of the variables:
Node0                           1
Node1                           1
Ya_0                            1
Y1_z                            1
Y0_1                            1
